(set-logic QF_SLIA)
(declare-fun var0 () String)
(assert (str.in_re var0 (re.++ ((_ re.loop 0 3) (re.++ ((_ re.loop 3 13) (str.to_re "&Ic")) (re.++ ((_ re.loop 4 14) (str.to_re "%)")) (re.++ ((_ re.loop 5 16) (str.to_re "PD")) ((_ re.loop 1 12) (str.to_re "A1")))))) (re.++ ((_ re.loop 0 4) (re.++ ((_ re.loop 0 12) (str.to_re ".")) (re.++ ((_ re.loop 2 14) (str.to_re ".Hb")) (re.++ ((_ re.loop 2 7) (str.to_re "j(")) ((_ re.loop 5 11) (str.to_re "*3]")))))) (re.++ ((_ re.loop 1 6) (re.++ ((_ re.loop 0 13) (str.to_re "Haq")) (re.++ ((_ re.loop 3 6) (str.to_re "sz5")) (re.++ ((_ re.loop 2 10) (str.to_re "/")) ((_ re.loop 2 20) (str.to_re "R")))))) ((_ re.loop 0 6) (re.++ ((_ re.loop 0 12) (str.to_re "Njh")) (re.++ ((_ re.loop 0 7) (str.to_re "^O[")) (re.++ ((_ re.loop 1 17) (str.to_re "*~e")) ((_ re.loop 1 6) (str.to_re "?")))))))))))
(assert (not (str.in_re var0 (re.++ (re.* re.allchar) (re.++ (re.union (str.to_re "<") (re.union (str.to_re ">") (re.union (str.to_re "'") (re.union (str.to_re "\u0022") (str.to_re "&"))))) (re.* re.allchar))))))
(assert (<= 50 (str.len var0)))
(check-sat)
(get-model)
